Route 1: 0 33 65 10 5 46 32 0
Route 2: 0 34 100 98 79 20 64 12 18 8 28 0
Route 3: 0 85 31 3 70 4 69 71 75 73 0
Route 4: 0 92 49 47 42 51 53 43 37 59 22 0
Route 5: 0 40 72 41 57 2 29 50 93 21 0
Route 6: 0 62 24 25 91 11 66 16 77 68 39 80 6 0
Route 7: 0 83 78 82 52 38 15 84 26 81 74 0
Route 8: 0 76 86 9 13 56 58 99 54 0
Route 9: 0 23 61 94 87 67 95 44 36 63 90 30 96 0
Route 10: 0 17 14 19 1 55 60 45 97 27 0
Route 11: 0 88 7 89 35 48 0
